WARNING: for repeatability, setting FPU to use double precision
============================[ Problem Statistics ]=============================
|                                                                             |
|  Number of variables:           258                                         |
|  Number of clauses:             977                                         |
|  Parse time:                   0.00 s                                       |
|                                                                             |
============================[ Search Statistics ]==============================
| Conflicts |          ORIGINAL         |          LEARNT          | Progress |
|           |    Vars  Clauses Literals |    Limit  Clauses Lit/Cl |          |
===============================================================================
===============================================================================
restarts              : 1
conflicts             : 17             (inf /sec)
decisions             : 23             (0.00 % random) (inf /sec)
propagations          : 631            (inf /sec)
conflict literals     : 45             (22.41 % deleted)
Memory used           : 19.00 MB
CPU time              : 0 s

UNSATISFIABLE
